c Sudoku solution
p cnf 729 0
223 0
248 0
281 0
296 0
327 0
352 0
361 0
374 0
398 0
536 0
547 0
593 0
613 0
639 0
335 0
655 0
678 0
682 0
697 0
763 0
792 0
812 0
868 0
916 0
319 0
126 0
214 0
232 0
172 0
346 0
383 0
666 0
967 0
942 0
971 0
873 0
933 0
491 0
994 0
959 0
257 0
187 0
777 0
837 0
417 0
476 0
641 0
624 0
438 0
558 0
734 0
131 0
118 0
745 0
711 0
756 0
886 0
515 0
521 0
422 0
562 0
485 0
584 0
579 0
844 0
851 0
275 0
199 0
165 0
154 0
143 0
269 0
449 0
453 0
464 0
988 0
895 0
789 0
728 0
925 0
829 0
